************************************************************************
file with basedata            : md331_.bas
initial value random generator: 1698455254
************************************************************************
projects                      :  1
jobs (incl. supersource/sink ):  22
horizon                       :  159
RESOURCES
  - renewable                 :  2   R
  - nonrenewable              :  2   N
  - doubly constrained        :  0   D
************************************************************************
PROJECT INFORMATION:
pronr.  #jobs rel.date duedate tardcost  MPM-Time
    1     20      0       28        8       28
************************************************************************
PRECEDENCE RELATIONS:
jobnr.    #modes  #successors   successors
   1        1          3           2   3   4
   2        3          2          15  16
   3        3          2           7   9
   4        3          3           5   7   8
   5        3          3           6  10  15
   6        3          2          13  16
   7        3          2          15  17
   8        3          3           9  11  12
   9        3          1          19
  10        3          2          11  12
  11        3          1          13
  12        3          2          14  18
  13        3          2          14  20
  14        3          2          19  21
  15        3          2          20  21
  16        3          3          17  19  21
  17        3          1          18
  18        3          1          20
  19        3          1          22
  20        3          1          22
  21        3          1          22
  22        1          0        
************************************************************************
REQUESTS/DURATIONS:
jobnr. mode duration  R 1  R 2  N 1  N 2
------------------------------------------------------------------------
  1      1     0       0    0    0    0
  2      1     2      10    0    6    0
         2     6       9    0    0    1
         3    10       9    0    5    0
  3      1     2       0    8    9    0
         2     8      10    0    6    0
         3    10       0    7    5    0
  4      1     5       8    0    8    0
         2     7       0    4    0    3
         3     9       8    0    4    0
  5      1     6       0    8    0    6
         2     7       0    7    0    2
         3     8       0    5    8    0
  6      1     8       0    6    7    0
         2    10       0    5    7    0
         3    10       7    0    0    4
  7      1     2       6    0    0    4
         2     3       3    0    2    0
         3     4       0    6    2    0
  8      1     1       5    0    4    0
         2     1       5    0    0    4
         3     7       0    1    0    4
  9      1     1       0    5    0    8
         2     6       0    5    0    7
         3    10       7    0    8    0
 10      1     2       5    0   10    0
         2     8       0    5    0    4
         3    10       5    0    0    4
 11      1     1       0    7    8    0
         2     4       7    0    0    2
         3     8       5    0    0    2
 12      1     8       0    7    2    0
         2     9       0    6    0    3
         3     9       5    0    0    4
 13      1     2       0    7    0    8
         2     3       0    6    8    0
         3     3       7    0    0    6
 14      1     2       0    6    6    0
         2     4       0    4    3    0
         3     4       0    5    1    0
 15      1     4       6    0    9    0
         2     4       0    6    6    0
         3     8       0    3    0    4
 16      1     2       0    5    0    4
         2    10       4    0    0    4
         3    10       4    0    6    0
 17      1     1       9    0    0    5
         2     3       8    0    4    0
         3     9       0    4    0    3
 18      1     5      10    0    2    0
         2     6       0    7    0    7
         3     6       8    0    0    7
 19      1     3       7    0    0    6
         2     5       0    7    0    6
         3     6       0    5    0    3
 20      1     1       0    7    0    4
         2     9       3    0   10    0
         3    10       0    2    0    3
 21      1     5       0    5    9    0
         2     8       0    3    4    0
         3     8       0    2    0    7
 22      1     0       0    0    0    0
************************************************************************
RESOURCEAVAILABILITIES:
  R 1  R 2  N 1  N 2
   26   18   66   44
************************************************************************
MAXIMAL LAGS:
from  to  type  delay
    1   22   ES      0
    1    2   ES      0
    2   22   ES      0
    1    3   ES      0
    3   22   ES      0
    1    4   ES      0
    4   22   ES      0
    1    5   ES      0
    5   22   ES      0
    1    6   ES      0
    6   22   ES      0
    1    7   ES      0
    7   22   ES      0
    1    8   ES      0
    8   22   ES      0
    1    9   ES      0
    9   22   ES      0
    1   10   ES      0
   10   22   ES      0
    1   11   ES      0
   11   22   ES      0
    1   12   ES      0
   12   22   ES      0
    1   13   ES      0
   13   22   ES      0
    1   14   ES      0
   14   22   ES      0
    1   15   ES      0
   15   22   ES      0
    1   16   ES      0
   16   22   ES      0
    1   17   ES      0
   17   22   ES      0
    1   18   ES      0
   18   22   ES      0
    1   19   ES      0
   19   22   ES      0
    1   20   ES      0
   20   22   ES      0
    1   21   ES      0
   21   22   ES      0
    1   22   ES      0
    2   15   SS     -9
    2   15   SE      4
    2   15   ES      4
    2   15   EE     -6
    2   16   SS     12
    2   16   SE     -1
    2   16   ES     -1
    2   16   EE     11
    3    7   SS      8
    3    7   SE     -8
    3    7   ES     -5
    3    7   EE     -9
    3    9   SS     -8
    3    9   SE     -4
    3    9   ES     -6
    3    9   EE     -7
    4    5   SS      7
    4    5   SE     -8
    4    5   ES     12
    4    5   EE     12
    4    7   SS      8
    4    7   SE    -10
    4    7   ES     -7
    4    7   EE     12
    4    8   SS      8
    4    8   SE      3
    4    8   ES      2
    4    8   EE     12
    5    6   SS      6
    5    6   SE     12
    5    6   ES      6
    5    6   EE      2
    5   10   SS      9
    5   10   SE      6
    5   10   ES      8
    5   10   EE      8
    5   15   SS      7
    5   15   SE     -2
    5   15   ES      8
    5   15   EE     -2
    6   13   SS     -8
    6   13   SE      2
    6   13   ES    -10
    6   13   EE      3
    6   16   SS      2
    6   16   SE      8
    6   16   ES     -3
    6   16   EE     -4
    7   15   SS      6
    7   15   SE    -11
    7   15   ES     -1
    7   15   EE      4
    7   17   SS    -10
    7   17   SE     -3
    7   17   ES      2
    7   17   EE      2
    8    9   SS    -11
    8    9   SE    -11
    8    9   ES     -1
    8    9   EE     -3
    8   11   SS    -10
    8   11   SE      8
    8   11   ES    -10
    8   11   EE      7
    8   12   SS      7
    8   12   SE      4
   12    8   SE      0
    8   12   ES      0
    8   12   EE      2
    9   19   SS      6
    9   19   SE      5
    9   19   ES     11
    9   19   EE    -11
   10   11   SS      2
   10   11   SE      6
   10   11   ES      8
   10   11   EE     -6
   10   12   SS     -2
   10   12   SE      7
   10   12   ES      3
   10   12   EE      4
   11   13   SS     -8
   11   13   SE    -11
   11   13   ES      2
   11   13   EE     -9
   12   14   SS     -2
   12   14   SE     10
   12   14   ES    -10
   12   14   EE      4
   12   18   SS      8
   12   18   SE     -7
   12   18   ES    -11
   12   18   EE     -5
   13   14   SS     10
   13   14   SE      2
   13   14   ES      2
   13   14   EE      4
   13   20   SS      4
   13   20   SE      7
   13   20   ES     -7
   13   20   EE     -1
   14   19   SS     -1
   14   19   SE     -3
   14   19   ES      0
   14   19   EE      1
   14   21   SS     12
   14   21   SE     -2
   14   21   ES      9
   14   21   EE      7
   15   20   SS    -11
   15   20   SE      8
   15   20   ES      8
   15   20   EE     -2
   15   21   SS    -10
   15   21   SE     -2
   15   21   ES     -9
   15   21   EE      5
   16   17   SS      9
   16   17   SE      0
   16   17   ES     -3
   16   17   EE     -4
   16   19   SS     11
   16   19   SE      9
   16   19   ES      7
   16   19   EE     -8
   16   21   SS     -2
   16   21   SE    -10
   16   21   ES      6
   16   21   EE      9
   17   18   SS     -8
   17   18   SE     -1
   17   18   ES     -3
   17   18   EE      8
   18   20   SS     10
   18   20   SE      9
   18   20   ES      0
   18   20   EE     -8
************************************************************************
